problems/csplib-prob015/SchursLemma-models/noch/O2/lingeling/model_1_3-4-14-solution000001.eprime-solution
language ESSENCE' 1.0

letting boxes_PartitionAsSet_ExplicitR5_ExplicitVarSizeWithMarker_Marker be [2, 2, 5, 5; int(1..4)]
letting boxes_PartitionAsSet_ExplicitR5_ExplicitVarSizeWithMarker_Values be
        [[1, 14, 1, 1, 1, 1, 1, 1, 1, 1, 1, 1, 1, 1; int(1..14)],
         [3, 5, 1, 1, 1, 1, 1, 1, 1, 1, 1, 1, 1, 1; int(1..14)],
         [2, 4, 7, 8, 13, 1, 1, 1, 1, 1, 1, 1, 1, 1; int(1..14)],
         [6, 9, 10, 11, 12, 1, 1, 1, 1, 1, 1, 1, 1, 1; int(1..14)]; int(1..4)]
