problems/csplib-prob015/SchursLemma-models/noch/O2/lingeling/model_1_3-4-14-solution000001.solution
language Essence 1.3

letting boxes be partition({1, 14}, {2, 4, 7, 8, 13}, {3, 5}, {6, 9, 10, 11, 12})
